p cnf 60 268
1 2 0
-1 -2 0
13 14 0
-13 -14 0
25 26 0
-25 -26 0
37 38 0
-37 -38 0
49 50 0
-49 -50 0
3 4 0
-3 -4 0
15 16 0
-15 -16 0
27 28 0
-27 -28 0
39 40 0
-39 -40 0
51 52 0
-51 -52 0
5 6 0
-5 -6 0
17 18 0
-17 -18 0
29 30 0
-29 -30 0
41 42 0
-41 -42 0
53 54 0
-53 -54 0
7 8 0
-7 -8 0
19 20 0
-19 -20 0
31 32 0
-31 -32 0
43 44 0
-43 -44 0
55 56 0
-55 -56 0
9 10 0
-9 -10 0
21 22 0
-21 -22 0
33 34 0
-33 -34 0
45 46 0
-45 -46 0
57 58 0
-57 -58 0
11 12 0
-11 -12 0
23 24 0
-23 -24 0
35 36 0
-35 -36 0
47 48 0
-47 -48 0
59 60 0
-59 -60 0
-1 -13 -49 4 0
-1 -14 -49 4 0
-1 -13 -50 4 0
-1 -14 -50 4 0
-2 -13 -49 4 0
-2 -14 -49 4 0
-2 -13 -50 4 0
-2 -14 -50 3 0
-13 -1 -25 16 0
-13 -2 -25 16 0
-13 -1 -26 16 0
-13 -2 -26 16 0
-14 -1 -25 16 0
-14 -2 -25 16 0
-14 -1 -26 16 0
-14 -2 -26 15 0
-25 -13 -37 28 0
-25 -14 -37 28 0
-25 -13 -38 28 0
-25 -14 -38 28 0
-26 -13 -37 28 0
-26 -14 -37 28 0
-26 -13 -38 28 0
-26 -14 -38 27 0
-37 -25 -49 40 0
-37 -26 -49 40 0
-37 -25 -50 40 0
-37 -26 -50 40 0
-38 -25 -49 40 0
-38 -26 -49 40 0
-38 -25 -50 40 0
-38 -26 -50 39 0
-49 -1 -37 52 0
-49 -2 -37 52 0
-49 -1 -38 52 0
-49 -2 -38 52 0
-50 -1 -37 52 0
-50 -2 -37 52 0
-50 -1 -38 52 0
-50 -2 -38 51 0
-3 -15 -51 6 0
-3 -16 -51 6 0
-3 -15 -52 6 0
-3 -16 -52 6 0
-4 -15 -51 6 0
-4 -16 -51 6 0
-4 -15 -52 6 0
-4 -16 -52 5 0
-15 -3 -27 18 0
-15 -4 -27 18 0
-15 -3 -28 18 0
-15 -4 -28 18 0
-16 -3 -27 18 0
-16 -4 -27 18 0
-16 -3 -28 18 0
-16 -4 -28 17 0
-27 -15 -39 30 0
-27 -16 -39 30 0
-27 -15 -40 30 0
-27 -16 -40 30 0
-28 -15 -39 30 0
-28 -16 -39 30 0
-28 -15 -40 30 0
-28 -16 -40 29 0
-39 -27 -51 42 0
-39 -28 -51 42 0
-39 -27 -52 42 0
-39 -28 -52 42 0
-40 -27 -51 42 0
-40 -28 -51 42 0
-40 -27 -52 42 0
-40 -28 -52 41 0
-51 -3 -39 54 0
-51 -4 -39 54 0
-51 -3 -40 54 0
-51 -4 -40 54 0
-52 -3 -39 54 0
-52 -4 -39 54 0
-52 -3 -40 54 0
-52 -4 -40 53 0
-5 -17 -53 8 0
-5 -18 -53 8 0
-5 -17 -54 8 0
-5 -18 -54 8 0
-6 -17 -53 8 0
-6 -18 -53 8 0
-6 -17 -54 8 0
-6 -18 -54 7 0
-17 -5 -29 20 0
-17 -6 -29 20 0
-17 -5 -30 20 0
-17 -6 -30 20 0
-18 -5 -29 20 0
-18 -6 -29 20 0
-18 -5 -30 20 0
-18 -6 -30 19 0
-29 -17 -41 32 0
-29 -18 -41 32 0
-29 -17 -42 32 0
-29 -18 -42 32 0
-30 -17 -41 32 0
-30 -18 -41 32 0
-30 -17 -42 32 0
-30 -18 -42 31 0
-41 -29 -53 44 0
-41 -30 -53 44 0
-41 -29 -54 44 0
-41 -30 -54 44 0
-42 -29 -53 44 0
-42 -30 -53 44 0
-42 -29 -54 44 0
-42 -30 -54 43 0
-53 -5 -41 56 0
-53 -6 -41 56 0
-53 -5 -42 56 0
-53 -6 -42 56 0
-54 -5 -41 56 0
-54 -6 -41 56 0
-54 -5 -42 56 0
-54 -6 -42 55 0
-7 -19 -55 10 0
-7 -20 -55 10 0
-7 -19 -56 10 0
-7 -20 -56 10 0
-8 -19 -55 10 0
-8 -20 -55 10 0
-8 -19 -56 10 0
-8 -20 -56 9 0
-19 -7 -31 22 0
-19 -8 -31 22 0
-19 -7 -32 22 0
-19 -8 -32 22 0
-20 -7 -31 22 0
-20 -8 -31 22 0
-20 -7 -32 22 0
-20 -8 -32 21 0
-31 -19 -43 34 0
-31 -20 -43 34 0
-31 -19 -44 34 0
-31 -20 -44 34 0
-32 -19 -43 34 0
-32 -20 -43 34 0
-32 -19 -44 34 0
-32 -20 -44 33 0
-43 -31 -55 46 0
-43 -32 -55 46 0
-43 -31 -56 46 0
-43 -32 -56 46 0
-44 -31 -55 46 0
-44 -32 -55 46 0
-44 -31 -56 46 0
-44 -32 -56 45 0
-55 -7 -43 58 0
-55 -8 -43 58 0
-55 -7 -44 58 0
-55 -8 -44 58 0
-56 -7 -43 58 0
-56 -8 -43 58 0
-56 -7 -44 58 0
-56 -8 -44 57 0
-9 -21 -57 12 0
-9 -22 -57 12 0
-9 -21 -58 12 0
-9 -22 -58 12 0
-10 -21 -57 12 0
-10 -22 -57 12 0
-10 -21 -58 12 0
-10 -22 -58 11 0
-21 -9 -33 24 0
-21 -10 -33 24 0
-21 -9 -34 24 0
-21 -10 -34 24 0
-22 -9 -33 24 0
-22 -10 -33 24 0
-22 -9 -34 24 0
-22 -10 -34 23 0
-33 -21 -45 36 0
-33 -22 -45 36 0
-33 -21 -46 36 0
-33 -22 -46 36 0
-34 -21 -45 36 0
-34 -22 -45 36 0
-34 -21 -46 36 0
-34 -22 -46 35 0
-45 -33 -57 48 0
-45 -34 -57 48 0
-45 -33 -58 48 0
-45 -34 -58 48 0
-46 -33 -57 48 0
-46 -34 -57 48 0
-46 -33 -58 48 0
-46 -34 -58 47 0
-57 -9 -45 60 0
-57 -10 -45 60 0
-57 -9 -46 60 0
-57 -10 -46 60 0
-58 -9 -45 60 0
-58 -10 -45 60 0
-58 -9 -46 60 0
-58 -10 -46 59 0
-11 -23 -35 -47 -59 0
-12 -24 -36 -48 -60 0
-1 -13 -25 -37 -49 0
-2 -14 -26 -38 -50 0
-3 -15 -27 -39 -51 0
-4 -16 -28 -40 -52 0
-7 -19 -31 -43 -55 0
-8 -20 -32 -44 -56 0
